&CONTROL
   calculation      = 'bands'
   outdir           = 'tmp'
   pseudo_dir       = 'pseudopotentials'
/
&SYSTEM
   ecutwfc          = 20.0
   ntyp             = 1
   nat              = 2
   ibrav            = 0
/
&ELECTRONS
/
&IONS
/
&CELL
/
&FCP
/
&RISM
/
ATOMIC_SPECIES
Si 28.085 Si.upf

K_POINTS crystal_b
37
0.00000000000000 0.00000000000000 0.00000000000000 0
0.10000000000000 0.00000000000000 0.10000000000000 0
0.20000000000000 0.00000000000000 0.20000000000000 0
0.30000000000000 0.00000000000000 0.30000000000000 0
0.40000000000000 0.00000000000000 0.40000000000000 0
0.50000000000000 0.00000000000000 0.50000000000000 0
0.50000000000000 0.12500000000000 0.62500000000000 0
0.50000000000000 0.25000000000000 0.75000000000000 0
0.37500000000000 0.37500000000000 0.75000000000000 0
0.31250000000000 0.31250000000000 0.62500000000000 0
0.25000000000000 0.25000000000000 0.50000000000000 0
0.18750000000000 0.18750000000000 0.37500000000000 0
0.12500000000000 0.12500000000000 0.25000000000000 0
0.06250000000000 0.06250000000000 0.12500000000000 0
0.00000000000000 0.00000000000000 0.00000000000000 0
0.10000000000000 0.10000000000000 0.10000000000000 0
0.20000000000000 0.20000000000000 0.20000000000000 0
0.30000000000000 0.30000000000000 0.30000000000000 0
0.40000000000000 0.40000000000000 0.40000000000000 0
0.50000000000000 0.50000000000000 0.50000000000000 0
0.54166666666667 0.41666666666667 0.54166666666667 0
0.58333333333333 0.33333333333333 0.58333333333333 0
0.62500000000000 0.25000000000000 0.62500000000000 0
0.56250000000000 0.25000000000000 0.68750000000000 0
0.50000000000000 0.25000000000000 0.75000000000000 0
0.50000000000000 0.31250000000000 0.68750000000000 0
0.50000000000000 0.37500000000000 0.62500000000000 0
0.50000000000000 0.43750000000000 0.56250000000000 0
0.50000000000000 0.50000000000000 0.50000000000000 0
0.47500000000000 0.47500000000000 0.55000000000000 0
0.45000000000000 0.45000000000000 0.60000000000000 0
0.42500000000000 0.42500000000000 0.65000000000000 0
0.40000000000000 0.40000000000000 0.70000000000000 0
0.37500000000000 0.37500000000000 0.75000000000000 0
0.62500000000000 0.25000000000000 0.62500000000000 0
0.56250000000000 0.12500000000000 0.56250000000000 0
0.50000000000000 0.00000000000000 0.50000000000000 0

CELL_PARAMETERS angstrom
0.00000000000000 2.71500000000000 2.71500000000000
2.71500000000000 0.00000000000000 2.71500000000000
2.71500000000000 2.71500000000000 0.00000000000000

ATOMIC_POSITIONS angstrom
Si 0.0000000000 0.0000000000 0.0000000000  
Si 1.3575000000 1.3575000000 1.3575000000  

