&CONTROL
   pseudo_dir       = 'pseudopotentials'
/
&SYSTEM
   ecutwfc          = 20.0
   ntyp             = 1
   nat              = 2
   ibrav            = 0
/
&ELECTRONS
/
&IONS
/
&CELL
/
&FCP
/
&RISM
/
ATOMIC_SPECIES
Si 28.085 Si.upf

K_POINTS crystal
8
0.00000000000000 0.00000000000000 0.00000000000000 0.12500000000000
0.00000000000000 0.00000000000000 0.50000000000000 0.12500000000000
0.00000000000000 0.50000000000000 0.00000000000000 0.12500000000000
0.00000000000000 0.50000000000000 0.50000000000000 0.12500000000000
0.50000000000000 0.00000000000000 0.00000000000000 0.12500000000000
0.50000000000000 0.00000000000000 0.50000000000000 0.12500000000000
0.50000000000000 0.50000000000000 0.00000000000000 0.12500000000000
0.50000000000000 0.50000000000000 0.50000000000000 0.12500000000000

CELL_PARAMETERS angstrom
0.00000000000000 2.71500000000000 2.71500000000000
2.71500000000000 0.00000000000000 2.71500000000000
2.71500000000000 2.71500000000000 0.00000000000000

ATOMIC_POSITIONS angstrom
Si 0.0000000000 0.0000000000 0.0000000000  
Si 1.3575000000 1.3575000000 1.3575000000  

